10J3M/DAT/10J3MULL-13.dat
10 3
9.7095 9.7095
44.1303 44.1303
9.511 9.511
45.0035 45.0035
29.1219 29.1219
19.1852 19.1852
14.0666 14.0666
31.6842 31.6842
38.4534 38.4534
38.0592 38.0592
92.9749