10J3M/SOL/10J3MULL-13.sol
solution status: optimal solution found
objective value:                              92.9749
x#1#2                                               1 	(obj:0)
x#2#3                                               1 	(obj:0)
x#3#2                                               1 	(obj:0)
x#4#3                               0.999997777950604 	(obj:0)
x#5#1                                               1 	(obj:0)
x#6#1                                               1 	(obj:0)
x#7#1                                               1 	(obj:0)
x#8#1                               0.965818925521238 	(obj:0)
x#8#2                              0.0341810744787621 	(obj:0)
x#9#2                               0.900107662781445 	(obj:0)
x#9#3                              0.0998923372185551 	(obj:0)
x#10#2                                              1 	(obj:0)
z                                             92.9749 	(obj:1)
